Debug: configOverride contents: IsWeighted_ObjFunc add_break_callback add_generate_reports add_threshold_distance_rssv bw_multiplier capacities cover_mode coverages cust_max_id distance_matrix loc_max_id max_ite_subprob_rssv method method_post_opt method_rssv_fp method_rssv_sp output p seed service size_subproblems_rssv subarea threads time time_cplex time_subprob_rssv weights 
Loading instance...
Scanning input data...
Distance matrix dimensions: 3039 x 3039 = 9235521
Elapsed time: 0 ms

Loading weights...
Skipped line: customer weight coord_x coord_y
Loaded 3038 weights
Loaded 3038 coordinates
Total customer demand: 152913.00
Elapsed time: 84 ms

Loading capacities...
Skipped line: location capacity coord_x coord_y
Loaded 3038 capacities
Loaded 3038 coordinates
Elapsed time: 23 ms

Loading distance matrix...
Computing euclidian distances...
bw multiplier: 0.50
Loaded 9232482 distances
dists stdev: 862.93
bandwidth h: 18.49
locations: 3038
customers: 3038
p: 700
Elapsed time: 154 ms

[INFO] Instance loaded
loc_max_id: 3038
loc_cnt: 3038
service: p3038_700
cust_max_id: 3038
cust_cnt: 3038
unweighted obj function
p: 700
total_demand: 152913.00


Default row names c1, c2 ... being created.
-------------------------------------------------
-------------------------------------------------
    EXACT_CPMP_BIN
-------------------------------------------------
Version identifier: 22.1.1.0 | 2022-11-28 | 9160aff4d
CPXPARAM_TimeLimit                               3600
Tried aggregator 1 time.
Presolve has eliminated 0 rows and 0 columns...
Reduced MIP has 6077 rows, 9232482 columns, and 18464964 nonzeros.
Reduced MIP has 9232482 binaries, 0 generals, 0 SOSs, and 0 indicators.
Presolve time = 38.87 sec. (16445.21 ticks)
Tried aggregator 1 time.
Presolve has eliminated 0 rows and 0 columns...
Detecting symmetries...
Reduced MIP has 6077 rows, 9232482 columns, and 18464964 nonzeros.
Reduced MIP has 9232482 binaries, 0 generals, 0 SOSs, and 0 indicators.
Presolve time = 59.19 sec. (18569.94 ticks)
Probing time = 21.75 sec. (2185.65 ticks)
Clique table members: 9232482.
MIP emphasis: balance optimality and feasibility.
MIP search method: dynamic search.
Parallel mode: deterministic, using up to 32 threads.
Root relaxation solution time = 75.29 sec. (16207.62 ticks)

        Nodes                                         Cuts/
   Node  Left     Objective  IInf  Best Integer    Best Bound    ItCnt     Gap

*     0+    0                      3542329.6759        0.0000           100.00%
*     0+    0                      3366924.4095        0.0000           100.00%
*     0+    0                      3227829.2264        0.0000           100.00%
*     0+    0                      3105799.4215        0.0000           100.00%
*     0+    0                      2986289.4722        0.0000           100.00%
*     0+    0                      2845496.1020        0.0000           100.00%
      0     0       -0.0000  2865  2845496.1020        0.0000     2912  100.00%
*     0+    0                      2807472.2400        0.0000           100.00%
*     0+    0                      2794797.1255        0.0000           100.00%
      0     0    46305.8025  3694  2794797.1255    Cuts: 1619     6005   98.34%
      0     0    73807.9869  4794  2794797.1255    Cuts: 1619     8735   97.36%
      0     0    87606.3021  5930  2794797.1255    Cuts: 1619    11542   96.87%
      0     0    92426.3999  6361  2794797.1255    Cuts: 1619    14063   96.69%
*     0+    0                       341587.2006    92426.3999            72.94%
*     0+    0                       341574.3685    92426.3999            72.94%
      0     0    95018.3532  6069   341574.3685    Cuts: 1619    16273   72.18%
Detecting symmetries...
      0     0   101976.0723  7120   341574.3685    Cuts: 1619    18740   70.15%
*     0+    0                       287546.2091   101976.0723            64.54%
      0     0   104370.8989  7033   287546.2091    Cuts: 1619    21037   63.70%
*     0+    0                       271571.1546   104370.8989            61.57%
      0     0   105972.5846  6658   271571.1546    Cuts: 1619    23513   60.98%
*     0+    0                       254422.6525   105972.5846            58.35%
      0     0   107114.3999  6321   254422.6525    Cuts: 1619    25914   57.90%
*     0+    0                       139630.7527   107114.3999            23.29%
      0     0  -1.00000e+75     0   139630.7527   107114.3999    25914   23.29%
      0     0   107938.6554  6399   139630.7527    Cuts: 1619    28498   22.70%
      0     0   108412.6024  5985   139630.7527    Cuts: 1443    30710   22.36%
      0     0   108693.3376  5420   139630.7527    Cuts: 1141    32474   22.16%
      0     0   108854.5053  4963   139630.7527     Cuts: 813    33723   22.04%
      0     0   108929.5038  5022   139630.7527     Cuts: 584    34653   21.99%
      0     0   108977.6898  4701   139630.7527     Cuts: 371    35302   21.95%
*     0+    0                       124559.2842   108977.6898            12.51%
      0     0   109008.8266  4358   124559.2842     Cuts: 276    35876   12.48%

Clique cuts applied:  4163
Cover cuts applied:  7504
Flow cuts applied:  213
Mixed integer rounding cuts applied:  870
Zero-half cuts applied:  1806

Root node processing (before b&c):
  Real time             = 3607.99 sec. (1869441.72 ticks)
Parallel b&c, 32 threads:
  Real time             =    0.00 sec. (0.00 ticks)
  Sync time (average)   =    0.00 sec.
  Wait time (average)   =    0.00 sec.
                          ------------
Total (root+branch&cut) = 3607.99 sec. (1869441.72 ticks)
[INFO] Saving variables cplex:
./outputs/solutions/2024-08-26_LIT_seed_200/VarsValues_cplex/test_lit_p3038_700_CPMP_Vars_Bin_p_700_EXACT_CPMP_BIN.txt
[INFO] Saving results cplex: 
./outputs/solutions/2024-08-26_LIT_seed_200/Results_cplex/test_lit_p3038_700_Bin_EXACT_CPMP_BIN.csv

Final solution CPMP:
p locations: 3033 3016 3012 3010 3008 2997 2994 2980 2971 2954 2943 2917 2913 2899 2877 2872 2862 2822 2811 2790 2780 2770 2765 2759 2756 2733 2727 2690 2688 2674 2662 2651 2642 2621 2616 2598 2594 2586 2579 2572 2568 2551 2545 2542 2525 2514 2505 2503 2495 2476 2459 2444 2434 2430 2426 2391 2375 2370 2360 2352 2340 2318 3018 2309 2306 2294 3000 2291 2984 2275 2273 2266 2251 2932 2223 2219 2196 2193 2178 2166 2147 2144 2851 2142 2134 2127 2121 2110 2108 2101 2098 2801 2092 2798 2089 2795 2086 2073 2070 2067 2062 2048 2045 2749 2040 2746 2037 2742 2033 2739 2030 2014 2720 2011 2006 2000 1986 2686 1977 1971 1964 1960 1949 1939 1929 2633 1924 1922 2627 1918 2624 1915 1911 1908 2612 1903 2609 1900 1897 1894 1872 1869 1857 2563 1854 1844 1841 1832 1826 1824 1821 1818 1795 2499 1790 1788 1781 2484 1775 1752 1748 1743 1733 1728 2432 1723 1713 1705 1704 2400 1691 2395 1686 2383 1674 1659 2365 1656 1641 1635 1629 2325 1616 2321 1612 1607 3021 1603 1599 2298 1589 3004 1586 1571 1568 1565 2269 1560 2974 1556 2260 1551 1547 1544 2241 1532 2233 1524 2226 1517 2927 1509 1501 1494 2199 1490 1477 2183 1474 2180 1471 1468 1466 1460 1448 2154 1445 2136 1427 2842 1424 2805 678 2131 4 675 2465 338 654 2773 646 2767 640 1314 635 2407 280 2372 954 1250 564 227 901 558 2348 221 554 540 2664 1955 537 2608 1190 2628 501 1537 828 480 2979 143 474 2229 811 637 2427 1718 300 470 462 453 2562 1144 435 429 766 592 1638 929 1073 560 897 1234 1439 730 392 384 1395 1800 382 2846 719 375 529 1575 866 2489 362 1036 361 2825 698 358 2808 681 514 347 1021 677 340 1351 1761 343 1017 507 170 1181 669 2462 335 331 1884 466 131 386 2885 49 1060 2888 52 159 456 1707 289 122 2698 571 2531 404 2903 67 2868 741 1078 70 2162 744 112 611 274 1994 576 1285 444 1118 1528 110 2388 261 1644 935 97 771 399 1108 589 252 837 1174 29 1784 366 3023 187 2956 2247 120 2660 533 908 199 2507 380 1054 2882 46 383 1057 22 661 1370 127 350 687 2431 304 565 64 1649 231 2951 115 2336 209 19 2785 2076 658 1367 1619 201 503 1212 34 371 1382 104 1689 271 608 2331 1622 913 204 1455 37 44 2714 587 1261 2547 420 1094 1806 1097 666 499 874 165 411 244 2450 323 997 2848 2139 12 1360 1755 337 2766 1348 495 1878 1169 2174 756 486 149 152 2302 1593 175 849 1186 178 799 90 931 685 190 269 193 1934 516 1225 1002 293 2722 1304 2343 216 555 520 1229 1340 631 839 130 1850 1141 297 1680 971 236 1247 247 1258 585 2211 84 2378 1669 251 265 2752 2043 625 2717 2008 1299 291 311 648 1322 314 2443 316 990 691 319 1028 1403 694 1740 1031 2833 706 722 1434 16 725 1442 733 737 749 2879 2170 752 763 1100 2901 774 1111 1486 777 2907 780 783 82 791 1504 86 795 88 797 425 1134 2941 814 1151 2945 2236 818 830 2961 834 2968 132 841 2987 860 1197 2290 1581 163 872 882 184 893 904 916 2671 544 1253 919 1632 214 923 218 927 941 946 959 964 257 966 975 976 981 2736 1318 984 2412 994 1710 1001 1007 1010 1738 1029 1366 328 1037 2468 1759 1050 1069 1082 1088 1811 393 1102 1814 1105 1119 413 1122 416 1125 2555 1137 2557 1848 1139 1146 2577 1159 1875 1166 1881 1172 1184 484 1193 491 1200 1205 1217 2640 1931 513 1222 2655 1946 1237 1952 1243 2683 1974 1265 1980 1271 1984 1275 1279 2706 1997 1288 598 1307 1310 617 1326 1329 1333 1337 1345 1356 1376 1398 2111 1402 1409 2122 1413 2835 1417 2839 712 1421 
p size: 700
objective: 124559.284180005095550
sum (dij * xij) 
demand/capacity: 152913.000000000000000/191100
Solution is Feasible
Statistics:
Max distance: 428.234748706827872
Min distance: 0.000000000000000
Avg distance: 41.000422705729129
Std deviation distance: 32.541980263837750


Final total elapsed time: 3653s
[INFO] Saving assignment: ./outputs/solutions/2024-08-26_LIT_seed_200/Assignments/test_lit_p3038_700_p_700_EXACT_CPMP_BIN.txt
[INFO] Saving results: ./outputs/solutions/2024-08-26_LIT_seed_200/test_lit_p3038_700_results_EXACT_CPMP_BIN.csv
[INFO] Saving all results: ./outputs/solutions/test_all_results.csv
Post Optimization: null


-------------------------------------------------
Post Optimization
-------------------------------------------------
method: null
-------------------------------------------------
Time for post-optimization: -53.000000000000000s
PostOptimization constructor
p locations: 3033 3016 3012 3010 3008 2997 2994 2980 2971 2954 2943 2917 2913 2899 2877 2872 2862 2822 2811 2790 2780 2770 2765 2759 2756 2733 2727 2690 2688 2674 2662 2651 2642 2621 2616 2598 2594 2586 2579 2572 2568 2551 2545 2542 2525 2514 2505 2503 2495 2476 2459 2444 2434 2430 2426 2391 2375 2370 2360 2352 2340 2318 3018 2309 2306 2294 3000 2291 2984 2275 2273 2266 2251 2932 2223 2219 2196 2193 2178 2166 2147 2144 2851 2142 2134 2127 2121 2110 2108 2101 2098 2801 2092 2798 2089 2795 2086 2073 2070 2067 2062 2048 2045 2749 2040 2746 2037 2742 2033 2739 2030 2014 2720 2011 2006 2000 1986 2686 1977 1971 1964 1960 1949 1939 1929 2633 1924 1922 2627 1918 2624 1915 1911 1908 2612 1903 2609 1900 1897 1894 1872 1869 1857 2563 1854 1844 1841 1832 1826 1824 1821 1818 1795 2499 1790 1788 1781 2484 1775 1752 1748 1743 1733 1728 2432 1723 1713 1705 1704 2400 1691 2395 1686 2383 1674 1659 2365 1656 1641 1635 1629 2325 1616 2321 1612 1607 3021 1603 1599 2298 1589 3004 1586 1571 1568 1565 2269 1560 2974 1556 2260 1551 1547 1544 2241 1532 2233 1524 2226 1517 2927 1509 1501 1494 2199 1490 1477 2183 1474 2180 1471 1468 1466 1460 1448 2154 1445 2136 1427 2842 1424 2805 678 2131 4 675 2465 338 654 2773 646 2767 640 1314 635 2407 280 2372 954 1250 564 227 901 558 2348 221 554 540 2664 1955 537 2608 1190 2628 501 1537 828 480 2979 143 474 2229 811 637 2427 1718 300 470 462 453 2562 1144 435 429 766 592 1638 929 1073 560 897 1234 1439 730 392 384 1395 1800 382 2846 719 375 529 1575 866 2489 362 1036 361 2825 698 358 2808 681 514 347 1021 677 340 1351 1761 343 1017 507 170 1181 669 2462 335 331 1884 466 131 386 2885 49 1060 2888 52 159 456 1707 289 122 2698 571 2531 404 2903 67 2868 741 1078 70 2162 744 112 611 274 1994 576 1285 444 1118 1528 110 2388 261 1644 935 97 771 399 1108 589 252 837 1174 29 1784 366 3023 187 2956 2247 120 2660 533 908 199 2507 380 1054 2882 46 383 1057 22 661 1370 127 350 687 2431 304 565 64 1649 231 2951 115 2336 209 19 2785 2076 658 1367 1619 201 503 1212 34 371 1382 104 1689 271 608 2331 1622 913 204 1455 37 44 2714 587 1261 2547 420 1094 1806 1097 666 499 874 165 411 244 2450 323 997 2848 2139 12 1360 1755 337 2766 1348 495 1878 1169 2174 756 486 149 152 2302 1593 175 849 1186 178 799 90 931 685 190 269 193 1934 516 1225 1002 293 2722 1304 2343 216 555 520 1229 1340 631 839 130 1850 1141 297 1680 971 236 1247 247 1258 585 2211 84 2378 1669 251 265 2752 2043 625 2717 2008 1299 291 311 648 1322 314 2443 316 990 691 319 1028 1403 694 1740 1031 2833 706 722 1434 16 725 1442 733 737 749 2879 2170 752 763 1100 2901 774 1111 1486 777 2907 780 783 82 791 1504 86 795 88 797 425 1134 2941 814 1151 2945 2236 818 830 2961 834 2968 132 841 2987 860 1197 2290 1581 163 872 882 184 893 904 916 2671 544 1253 919 1632 214 923 218 927 941 946 959 964 257 966 975 976 981 2736 1318 984 2412 994 1710 1001 1007 1010 1738 1029 1366 328 1037 2468 1759 1050 1069 1082 1088 1811 393 1102 1814 1105 1119 413 1122 416 1125 2555 1137 2557 1848 1139 1146 2577 1159 1875 1166 1881 1172 1184 484 1193 491 1200 1205 1217 2640 1931 513 1222 2655 1946 1237 1952 1243 2683 1974 1265 1980 1271 1984 1275 1279 2706 1997 1288 598 1307 1310 617 1326 1329 1333 1337 1345 1356 1376 1398 2111 1402 1409 2122 1413 2835 1417 2839 712 1421 
p size: 700
objective: 124559.284180005095550
sum (dij * xij) 
demand/capacity: 152913.000000000000000/191100
Solution is Feasible
[INFO] Running post-optimization
Time limit: -53.000000000000000
Max size of the neigh: 3



Finishing post-optimization
p locations: 3033 3016 3012 3010 3008 2997 2994 2980 2971 2954 2943 2917 2913 2899 2877 2872 2862 2822 2811 2790 2780 2770 2765 2759 2756 2733 2727 2690 2688 2674 2662 2651 2642 2621 2616 2598 2594 2586 2579 2572 2568 2551 2545 2542 2525 2514 2505 2503 2495 2476 2459 2444 2434 2430 2426 2391 2375 2370 2360 2352 2340 2318 3018 2309 2306 2294 3000 2291 2984 2275 2273 2266 2251 2932 2223 2219 2196 2193 2178 2166 2147 2144 2851 2142 2134 2127 2121 2110 2108 2101 2098 2801 2092 2798 2089 2795 2086 2073 2070 2067 2062 2048 2045 2749 2040 2746 2037 2742 2033 2739 2030 2014 2720 2011 2006 2000 1986 2686 1977 1971 1964 1960 1949 1939 1929 2633 1924 1922 2627 1918 2624 1915 1911 1908 2612 1903 2609 1900 1897 1894 1872 1869 1857 2563 1854 1844 1841 1832 1826 1824 1821 1818 1795 2499 1790 1788 1781 2484 1775 1752 1748 1743 1733 1728 2432 1723 1713 1705 1704 2400 1691 2395 1686 2383 1674 1659 2365 1656 1641 1635 1629 2325 1616 2321 1612 1607 3021 1603 1599 2298 1589 3004 1586 1571 1568 1565 2269 1560 2974 1556 2260 1551 1547 1544 2241 1532 2233 1524 2226 1517 2927 1509 1501 1494 2199 1490 1477 2183 1474 2180 1471 1468 1466 1460 1448 2154 1445 2136 1427 2842 1424 2805 678 2131 4 675 2465 338 654 2773 646 2767 640 1314 635 2407 280 2372 954 1250 564 227 901 558 2348 221 554 540 2664 1955 537 2608 1190 2628 501 1537 828 480 2979 143 474 2229 811 637 2427 1718 300 470 462 453 2562 1144 435 429 766 592 1638 929 1073 560 897 1234 1439 730 392 384 1395 1800 382 2846 719 375 529 1575 866 2489 362 1036 361 2825 698 358 2808 681 514 347 1021 677 340 1351 1761 343 1017 507 170 1181 669 2462 335 331 1884 466 131 386 2885 49 1060 2888 52 159 456 1707 289 122 2698 571 2531 404 2903 67 2868 741 1078 70 2162 744 112 611 274 1994 576 1285 444 1118 1528 110 2388 261 1644 935 97 771 399 1108 589 252 837 1174 29 1784 366 3023 187 2956 2247 120 2660 533 908 199 2507 380 1054 2882 46 383 1057 22 661 1370 127 350 687 2431 304 565 64 1649 231 2951 115 2336 209 19 2785 2076 658 1367 1619 201 503 1212 34 371 1382 104 1689 271 608 2331 1622 913 204 1455 37 44 2714 587 1261 2547 420 1094 1806 1097 666 499 874 165 411 244 2450 323 997 2848 2139 12 1360 1755 337 2766 1348 495 1878 1169 2174 756 486 149 152 2302 1593 175 849 1186 178 799 90 931 685 190 269 193 1934 516 1225 1002 293 2722 1304 2343 216 555 520 1229 1340 631 839 130 1850 1141 297 1680 971 236 1247 247 1258 585 2211 84 2378 1669 251 265 2752 2043 625 2717 2008 1299 291 311 648 1322 314 2443 316 990 691 319 1028 1403 694 1740 1031 2833 706 722 1434 16 725 1442 733 737 749 2879 2170 752 763 1100 2901 774 1111 1486 777 2907 780 783 82 791 1504 86 795 88 797 425 1134 2941 814 1151 2945 2236 818 830 2961 834 2968 132 841 2987 860 1197 2290 1581 163 872 882 184 893 904 916 2671 544 1253 919 1632 214 923 218 927 941 946 959 964 257 966 975 976 981 2736 1318 984 2412 994 1710 1001 1007 1010 1738 1029 1366 328 1037 2468 1759 1050 1069 1082 1088 1811 393 1102 1814 1105 1119 413 1122 416 1125 2555 1137 2557 1848 1139 1146 2577 1159 1875 1166 1881 1172 1184 484 1193 491 1200 1205 1217 2640 1931 513 1222 2655 1946 1237 1952 1243 2683 1974 1265 1980 1271 1984 1275 1279 2706 1997 1288 598 1307 1310 617 1326 1329 1333 1337 1345 1356 1376 1398 2111 1402 1409 2122 1413 2835 1417 2839 712 1421 
p size: 700
objective: 124559.284180005095550
sum (dij * xij) 
demand/capacity: 152913.000000000000000/191100
Solution is Feasible
Solution Stats
Statistics:
Max distance: 428.234748706827872
Min distance: 0.000000000000000
Avg distance: 41.000422705729129
Std deviation distance: 32.541980263837750


[INFO] Saving assignment: ./outputs/solutions/2024-08-26_LIT_seed_200/Assignments/test_lit_p3038_700_p_700_EXACT_CPMP_BIN_POSTOPT.txt
[INFO] Saving results: ./outputs/solutions/2024-08-26_LIT_seed_200/test_lit_p3038_700_results_EXACT_CPMP_BIN_POSTOPT.csv
[INFO] Saving all results: ./outputs/solutions/test_all_results.csv
Final total elapsed time (post opt): 3653s
Elapsed time: 3653835 ms

